50
    1   456   437
    2   236   253
    3   168   175
    4   250   272
    5   193   165
    6   235   219
    7   266   254
    8   457   457
    9   346   326
   10   330   367
   11   383   357
   12    33    68
   13    51    53
   14   310   317
   15    97    94
   16   201   214
   17   438   458
   18   131    93
   19   433   438
   20   362   315
   21   428   470
   22    90    45
   23   158   205
   24   260   232
   25   181   138
   26   433   421
   27    68    35
   28   162   165
   29   208   183
   30     7    16
   31   308   303
   32   309   329
   33   472   477
   34   108    98
   35   312   301
   36   202   210
   37    55    29
   38    74   114
   39   344   321
   40   357   356
   41   122    76
   42   227   195
   43   313   331
   44    11    43
   45   477   460
   46   252   256
   47   460   479
   48   122   155
   49   454   488
   50   103   133
8264
